solution status: optimal solution found
objective value:                                    0
one.pinholes[0].hole_in_c_y                         8 	(obj:0)
one.pinholes[0].hole_in_c_z                        10 	(obj:0)
one.pinholes[0].hole_in_a_y                         8 	(obj:0)
one.pinholes[0].hole_in_a_z                        12 	(obj:0)
one.pinholes[0].hole_in_b_y                         8 	(obj:0)
one.pinholes[0].hole_in_b_z                        11 	(obj:0)
